(set-logic ALL)
(declare-fun var0 () String)
(assert (str.in_re var0 (re.++ (re.* (re.union (str.to_re "00") (str.to_re "111"))) (re.++ (re.+ (re.* (str.to_re "22"))) (re.++ (re.+ (re.* (str.to_re "33"))) (re.++ (re.+ (re.* (str.to_re "444"))) (re.++ (re.+ (re.* (str.to_re "5"))) (re.++ (re.* (re.* (str.to_re "66"))) (re.++ (re.+ (re.+ (str.to_re "7"))) (re.++ (re.* (re.* (str.to_re "8"))) (re.++ (re.* (re.union (str.to_re "999") (str.to_re "aaa"))) (re.* (re.union (str.to_re "bb") (str.to_re "ccc"))))))))))))))
(assert (<= 226 (str.len var0)))
(check-sat)